(set-logic HORN)
(set-info :source |
    Benchmark: C_VC
    Output by Princess (http://www.philipp.ruemmer.org/princess.shtml)
|)
(set-info :status sat)
(declare-heap Heap Addr HeapObject
 defObj
 ((HeapObject 0) (node 0)) (
  (
   (O_Int (getInt Int))
   (O_UInt (getUInt Int))
   (O_Addr (getAddr Addr))
   (O_node (getnode node))
   (defObj)
  )
  (
   (node (next Addr) (data Int))
  )
))
(declare-fun inv_main12 (Heap Int Int Int Int Int Addr) Bool)
(declare-fun inv_main15 (Heap Int Int Int Int Int Addr Int) Bool)
(declare-fun inv_main18 (Heap Int Int Int Int Int Addr) Bool)
(declare-fun inv_main21 (Heap Int Int Int Int Addr Addr) Bool)
(declare-fun inv_main22 (Heap Int Int Int Int Addr Addr) Bool)
(declare-fun inv_main28 (Heap Int Int Int Int Addr Addr Int Addr) Bool)
(declare-fun inv_main31 (Heap Int Int Int Int Addr Addr Int Addr Int) Bool)
(declare-fun inv_main34 (Heap Int Int Int Int Addr Addr Int Addr) Bool)
(declare-fun inv_main36 (Heap Int Int Int Int Addr Addr Addr) Bool)
(declare-fun inv_main4 (Heap Int Int) Bool)
(declare-fun inv_main41 (Heap Int Int Addr Int) Bool)
(declare-fun inv_main45 (Heap Int Int Addr Int Int) Bool)
(declare-fun inv_main52 (Heap Int Int Addr Int Int Addr Addr) Bool)
(declare-fun inv_main53 (Heap Int Int Addr Int Int Addr Addr) Bool)
(declare-fun inv_main54 (Heap Int Int Addr Int Int Addr Addr) Bool)
(declare-fun inv_main62 (Heap Int Int Addr Int) Bool)
(assert (forall ((var0 Int) (var1 Int) (var2 Heap)) (or (not (and (and (= var2 emptyHeap) (= var1 2)) (= var0 1))) (inv_main4 var2 var1 var0))))
(assert (forall ((var0 Int) (var1 Addr) (var2 Int) (var3 Int) (var4 Int) (var5 Int) (var6 Int) (var7 Heap)) (or (not (inv_main15 var7 var6 var5 var4 var3 var2 var1 var0)) (inv_main15 var7 var6 var5 var4 var3 var2 var1 var0))))
(assert (forall ((var0 Int) (var1 Int) (var2 Int) (var3 Int) (var4 Int) (var5 Int) (var6 node) (var7 Heap) (var8 Addr) (var9 Int) (var10 Int) (var11 Heap)) (or (not (and (inv_main4 var11 var10 var9) (and (and (= nullAddr var8) (and (and (and (and (and (and (= var7 (newHeap (alloc var11 (O_node var6)))) (= var5 var10)) (= var4 var9)) (= var3 var10)) (= var2 var9)) (= var1 var9)) (= var8 (newAddr (alloc var11 (O_node var6)))))) (= var0 1)))) (inv_main15 var7 var5 var4 var3 var2 var1 var8 var0))))
(assert (forall ((var0 Addr) (var1 Addr) (var2 Int) (var3 Int) (var4 Int) (var5 Int) (var6 Heap) (var7 Addr) (var8 Addr) (var9 Addr) (var10 Addr) (var11 Int) (var12 Int) (var13 Addr) (var14 Int) (var15 Int) (var16 Heap)) (or (not (and (inv_main52 var16 var15 var14 var13 var12 var11 var10 var9) (and (and (not (= var8 var7)) (is-O_node (read var16 var9))) (and (and (and (and (and (and (and (and (= var6 var16) (= var5 var15)) (= var4 var14)) (= var7 var13)) (= var3 var12)) (= var2 var11)) (= var1 var10)) (= var0 var9)) (= var8 (next (getnode (read var16 var9)))))))) (inv_main54 var6 var5 var4 var7 var3 var2 var1 var0))))
(assert (forall ((var0 Int) (var1 Addr) (var2 Int) (var3 Addr) (var4 Addr) (var5 Int) (var6 Int) (var7 Int) (var8 Int) (var9 Heap)) (or (not (inv_main31 var9 var8 var7 var6 var5 var4 var3 var2 var1 var0)) (inv_main31 var9 var8 var7 var6 var5 var4 var3 var2 var1 var0))))
(assert (forall ((var0 Int) (var1 Int) (var2 Addr) (var3 Addr) (var4 Int) (var5 Int) (var6 Int) (var7 Int) (var8 node) (var9 Heap) (var10 Addr) (var11 Addr) (var12 Addr) (var13 Int) (var14 Int) (var15 Int) (var16 Int) (var17 Heap)) (or (not (and (inv_main21 var17 var16 var15 var14 var13 var12 var11) (and (and (and (= nullAddr var10) (and (and (and (and (and (and (and (and (= var9 (newHeap (alloc var17 (O_node var8)))) (= var7 var16)) (= var6 var15)) (= var5 var14)) (= var4 var13)) (= var3 var12)) (= var2 var11)) (= var1 var13)) (= var10 (newAddr (alloc var17 (O_node var8)))))) (<= 0 (+ (+ var14 (- 1)) (- 1)))) (= var0 1)))) (inv_main31 var9 var7 var6 var5 var4 var3 var2 var1 var10 var0))))
(assert (forall ((var0 Int) (var1 Addr) (var2 Addr) (var3 Int) (var4 Int) (var5 Int) (var6 Int) (var7 node) (var8 Heap) (var9 Addr) (var10 Addr) (var11 Addr) (var12 Int) (var13 Int) (var14 Int) (var15 Int) (var16 Heap)) (or (not (and (inv_main21 var16 var15 var14 var13 var12 var11 var10) (and (and (not (= nullAddr var9)) (and (and (and (and (and (and (and (and (= var8 (newHeap (alloc var16 (O_node var7)))) (= var6 var15)) (= var5 var14)) (= var4 var13)) (= var3 var12)) (= var2 var11)) (= var1 var10)) (= var0 var12)) (= var9 (newAddr (alloc var16 (O_node var7)))))) (<= 0 (+ (+ var13 (- 1)) (- 1)))))) (inv_main28 var8 var6 var5 var4 var3 var2 var1 var0 var9))))
(assert (forall ((var0 Int) (var1 Addr) (var2 Int) (var3 Int) (var4 Heap)) (or (not (and (inv_main41 var4 var3 var2 var1 var0) (and (not (= nullAddr var1)) (not (<= 0 (+ (+ var3 (* (- 1) var0)) (- 1))))))) (inv_main62 var4 var3 var2 var1 var0))))
(assert (forall ((var0 Int) (var1 Int) (var2 Int) (var3 Int) (var4 Int) (var5 node) (var6 Heap) (var7 Addr) (var8 Int) (var9 Int) (var10 Heap)) (or (not (and (inv_main4 var10 var9 var8) (and (not (= nullAddr var7)) (and (and (and (and (and (and (= var6 (newHeap (alloc var10 (O_node var5)))) (= var4 var9)) (= var3 var8)) (= var2 var9)) (= var1 var8)) (= var0 var8)) (= var7 (newAddr (alloc var10 (O_node var5)))))))) (inv_main12 var6 var4 var3 var2 var1 var0 var7))))
(assert (forall ((var0 Addr) (var1 Addr) (var2 Int) (var3 Int) (var4 Int) (var5 Int) (var6 Heap)) (or (not (and (inv_main21 var6 var5 var4 var3 var2 var1 var0) (not (<= 0 (+ (+ var3 (- 1)) (- 1)))))) (inv_main22 var6 var5 var4 var3 var2 var1 var0))))
(assert (forall ((var0 Heap) (var1 Addr) (var2 Int) (var3 Int) (var4 Int) (var5 Int) (var6 Int) (var7 Heap)) (or (not (and (inv_main12 var7 var6 var5 var4 var3 var2 var1) (and (and (is-O_node (read var7 var1)) (is-O_node (read var7 var1))) (= var0 (write var7 var1 (O_node (node nullAddr (data (getnode (read var7 var1)))))))))) (inv_main18 var0 var6 var5 var4 var3 var2 var1))))
(assert (forall ((var0 Addr) (var1 Addr) (var2 Addr) (var3 Int) (var4 Int) (var5 Addr) (var6 Int) (var7 Int) (var8 Heap) (var9 Addr) (var10 Addr) (var11 Int) (var12 Int) (var13 Addr) (var14 Int) (var15 Int) (var16 Heap)) (or (not (and (inv_main54 var16 var15 var14 var13 var12 var11 var10 var9) (and (is-O_node (read var16 var9)) (and (and (and (and (and (and (and (and (= var8 var16) (= var7 var15)) (= var6 var14)) (= var5 var13)) (= var4 var12)) (= var3 var11)) (= var2 var10)) (= var1 var9)) (= var0 (next (getnode (read var16 var9)))))))) (inv_main52 var8 var7 var6 var5 var4 var3 var2 var0))))
(assert (forall ((var0 Int) (var1 Int) (var2 Int) (var3 Int) (var4 Heap) (var5 Addr) (var6 Addr) (var7 Int) (var8 Int) (var9 Addr) (var10 Int) (var11 Int) (var12 Heap)) (or (not (and (inv_main45 var12 var11 var10 var9 var8 var7) (and (and (not (= var6 var5)) (is-O_node (read var12 var9))) (and (and (and (and (and (and (= var4 var12) (= var3 var11)) (= var2 var10)) (= var5 var9)) (= var1 var8)) (= var0 var7)) (= var6 (next (getnode (read var12 var9)))))))) (inv_main52 var4 var3 var2 var5 var1 var0 var6 var5))))
(assert (forall ((var0 Int) (var1 Int) (var2 Addr) (var3 Int) (var4 Int) (var5 Heap)) (or (not (and (inv_main41 var5 var4 var3 var2 var1) (and (<= 0 (+ (+ var4 (* (- 1) var1)) (- 1))) (= var0 3)))) (inv_main45 var5 var4 var3 var2 var1 var0))))
(assert (forall ((var0 Heap) (var1 Addr) (var2 Int) (var3 Addr) (var4 Addr) (var5 Int) (var6 Int) (var7 Int) (var8 Int) (var9 Heap)) (or (not (and (inv_main28 var9 var8 var7 var6 var5 var4 var3 var2 var1) (and (and (is-O_node (read var9 var1)) (is-O_node (read var9 var1))) (= var0 (write var9 var1 (O_node (node nullAddr (data (getnode (read var9 var1)))))))))) (inv_main34 var0 var8 var7 var6 var5 var4 var3 var2 var1))))
(assert (forall ((var0 Addr) (var1 Addr) (var2 Int) (var3 Int) (var4 Int) (var5 Int) (var6 Heap) (var7 Addr) (var8 Addr) (var9 Addr) (var10 Addr) (var11 Int) (var12 Int) (var13 Addr) (var14 Int) (var15 Int) (var16 Heap)) (or (not (and (inv_main52 var16 var15 var14 var13 var12 var11 var10 var9) (and (and (= var8 var7) (is-O_node (read var16 var9))) (and (and (and (and (and (and (and (and (= var6 var16) (= var5 var15)) (= var4 var14)) (= var7 var13)) (= var3 var12)) (= var2 var11)) (= var1 var10)) (= var0 var9)) (= var8 (next (getnode (read var16 var9)))))))) (inv_main53 var6 var5 var4 var7 var3 var2 var1 var0))))
(assert (forall ((var0 Addr) (var1 Int) (var2 Addr) (var3 Addr) (var4 Int) (var5 Int) (var6 Int) (var7 Int) (var8 Heap) (var9 Addr) (var10 Int) (var11 Addr) (var12 Addr) (var13 Int) (var14 Int) (var15 Int) (var16 Int) (var17 Heap)) (or (not (and (inv_main34 var17 var16 var15 var14 var13 var12 var11 var10 var9) (and (and (is-O_node (read var17 var9)) (is-O_node (read var17 var9))) (and (and (and (and (and (and (and (and (= var8 (write var17 var9 (O_node (node (next (getnode (read var17 var9))) var10)))) (= var7 var16)) (= var6 var15)) (= var5 var14)) (= var4 var13)) (= var3 var12)) (= var2 var11)) (= var1 var10)) (= var0 var9))))) (inv_main36 var8 var7 var6 var5 var4 var3 var2 var0))))
(assert (forall ((var0 Int) (var1 Addr) (var2 Addr) (var3 Int) (var4 Int) (var5 Addr) (var6 Int) (var7 Int) (var8 Heap) (var9 Addr) (var10 Addr) (var11 Int) (var12 Int) (var13 Addr) (var14 Int) (var15 Int) (var16 Heap) (var17 Addr) (var18 Addr) (var19 Int) (var20 Int) (var21 Addr) (var22 Int) (var23 Int) (var24 Heap)) (or (not (and (inv_main53 var24 var23 var22 var21 var20 var19 var18 var17) (and (and (and (and (is-O_node (read var24 var17)) (is-O_node (read var24 var17))) (and (and (and (and (and (and (and (= var16 (write var24 var17 (O_node (node var18 (data (getnode (read var24 var17))))))) (= var15 var23)) (= var14 var22)) (= var13 var21)) (= var12 var20)) (= var11 var19)) (= var10 var18)) (= var9 var17))) (and (and (and (and (and (and (and (= var8 (write var16 var13 defObj)) (= var7 var15)) (= var6 var14)) (= var5 var13)) (= var4 var12)) (= var3 var11)) (= var2 var10)) (= var1 var9))) (= var0 (+ var4 1))))) (inv_main41 var8 var7 var6 var2 var0))))
(assert (forall ((var0 Int) (var1 Int) (var2 Int) (var3 Addr) (var4 Int) (var5 Int) (var6 Heap) (var7 Addr) (var8 Int) (var9 Int) (var10 Addr) (var11 Int) (var12 Int) (var13 Heap) (var14 Int) (var15 Int) (var16 Int) (var17 Int) (var18 Heap) (var19 Addr) (var20 Addr) (var21 Int) (var22 Int) (var23 Addr) (var24 Int) (var25 Int) (var26 Heap)) (or (not (and (inv_main45 var26 var25 var24 var23 var22 var21) (and (and (and (and (and (= var20 var19) (is-O_node (read var26 var23))) (and (and (and (and (and (and (= var18 var26) (= var17 var25)) (= var16 var24)) (= var19 var23)) (= var15 var22)) (= var14 var21)) (= var20 (next (getnode (read var26 var23)))))) (and (and (and (and (and (and (= var13 (write var18 var19 defObj)) (= var12 var17)) (= var11 var16)) (= var10 var19)) (= var9 var15)) (= var8 var14)) (= var7 var20))) (and (and (and (and (and (= var6 var13) (= var5 var12)) (= var4 var11)) (= var3 nullAddr)) (= var2 var9)) (= var1 var8))) (= var0 (+ var2 1))))) (inv_main41 var6 var5 var4 var3 var0))))
(assert (forall ((var0 Int) (var1 Addr) (var2 Addr) (var3 Int) (var4 Int) (var5 Int) (var6 Int) (var7 Heap) (var8 Addr) (var9 Addr) (var10 Int) (var11 Int) (var12 Int) (var13 Int) (var14 Heap)) (or (not (and (inv_main22 var14 var13 var12 var11 var10 var9 var8) (and (and (and (is-O_node (read var14 var8)) (is-O_node (read var14 var8))) (and (and (and (and (and (and (= var7 (write var14 var8 (O_node (node var9 (data (getnode (read var14 var8))))))) (= var6 var13)) (= var5 var12)) (= var4 var11)) (= var3 var10)) (= var2 var9)) (= var1 var8))) (= var0 0)))) (inv_main41 var7 var6 var5 var2 var0))))
(assert (forall ((var0 Int) (var1 Addr) (var2 Addr) (var3 Addr) (var4 Int) (var5 Int) (var6 Int) (var7 Int) (var8 Heap) (var9 Addr) (var10 Addr) (var11 Addr) (var12 Int) (var13 Int) (var14 Int) (var15 Int) (var16 Heap)) (or (not (and (inv_main36 var16 var15 var14 var13 var12 var11 var10 var9) (and (and (and (is-O_node (read var16 var9)) (is-O_node (read var16 var9))) (and (and (and (and (and (and (and (= var8 (write var16 var9 (O_node (node var11 (data (getnode (read var16 var9))))))) (= var7 var15)) (= var6 var14)) (= var5 var13)) (= var4 var12)) (= var3 var11)) (= var2 var10)) (= var1 var9))) (= var0 (+ var5 (- 1)))))) (inv_main21 var8 var7 var6 var0 var4 var1 var2))))
(assert (forall ((var0 Addr) (var1 Int) (var2 Int) (var3 Int) (var4 Int) (var5 Int) (var6 Heap) (var7 Addr) (var8 Int) (var9 Int) (var10 Int) (var11 Int) (var12 Int) (var13 Heap)) (or (not (and (inv_main18 var13 var12 var11 var10 var9 var8 var7) (and (and (is-O_node (read var13 var7)) (is-O_node (read var13 var7))) (and (and (and (and (and (and (= var6 (write var13 var7 (O_node (node (next (getnode (read var13 var7))) var8)))) (= var5 var12)) (= var4 var11)) (= var3 var10)) (= var2 var9)) (= var1 var8)) (= var0 var7))))) (inv_main21 var6 var5 var4 var3 var2 var0 var0))))
(assert (forall ((var0 Addr) (var1 Int) (var2 Int) (var3 Int) (var4 Int) (var5 Int) (var6 Heap)) (not (and (inv_main12 var6 var5 var4 var3 var2 var1 var0) (not (is-O_node (read var6 var0)))))))
(assert (forall ((var0 Addr) (var1 Int) (var2 Int) (var3 Int) (var4 Int) (var5 Int) (var6 Heap)) (not (and (inv_main12 var6 var5 var4 var3 var2 var1 var0) (and (is-O_node (read var6 var0)) (not (is-O_node (read var6 var0))))))))
(assert (forall ((var0 Addr) (var1 Int) (var2 Int) (var3 Int) (var4 Int) (var5 Int) (var6 Heap)) (not (and (inv_main18 var6 var5 var4 var3 var2 var1 var0) (not (is-O_node (read var6 var0)))))))
(assert (forall ((var0 Addr) (var1 Int) (var2 Int) (var3 Int) (var4 Int) (var5 Int) (var6 Heap)) (not (and (inv_main18 var6 var5 var4 var3 var2 var1 var0) (and (is-O_node (read var6 var0)) (not (is-O_node (read var6 var0))))))))
(assert (forall ((var0 Addr) (var1 Int) (var2 Addr) (var3 Addr) (var4 Int) (var5 Int) (var6 Int) (var7 Int) (var8 Heap)) (not (and (inv_main28 var8 var7 var6 var5 var4 var3 var2 var1 var0) (not (is-O_node (read var8 var0)))))))
(assert (forall ((var0 Addr) (var1 Int) (var2 Addr) (var3 Addr) (var4 Int) (var5 Int) (var6 Int) (var7 Int) (var8 Heap)) (not (and (inv_main28 var8 var7 var6 var5 var4 var3 var2 var1 var0) (and (is-O_node (read var8 var0)) (not (is-O_node (read var8 var0))))))))
(assert (forall ((var0 Addr) (var1 Int) (var2 Addr) (var3 Addr) (var4 Int) (var5 Int) (var6 Int) (var7 Int) (var8 Heap)) (not (and (inv_main34 var8 var7 var6 var5 var4 var3 var2 var1 var0) (not (is-O_node (read var8 var0)))))))
(assert (forall ((var0 Addr) (var1 Int) (var2 Addr) (var3 Addr) (var4 Int) (var5 Int) (var6 Int) (var7 Int) (var8 Heap)) (not (and (inv_main34 var8 var7 var6 var5 var4 var3 var2 var1 var0) (and (is-O_node (read var8 var0)) (not (is-O_node (read var8 var0))))))))
(assert (forall ((var0 Addr) (var1 Addr) (var2 Addr) (var3 Int) (var4 Int) (var5 Int) (var6 Int) (var7 Heap)) (not (and (inv_main36 var7 var6 var5 var4 var3 var2 var1 var0) (not (is-O_node (read var7 var0)))))))
(assert (forall ((var0 Addr) (var1 Addr) (var2 Addr) (var3 Int) (var4 Int) (var5 Int) (var6 Int) (var7 Heap)) (not (and (inv_main36 var7 var6 var5 var4 var3 var2 var1 var0) (and (is-O_node (read var7 var0)) (not (is-O_node (read var7 var0))))))))
(assert (forall ((var0 Addr) (var1 Addr) (var2 Int) (var3 Int) (var4 Int) (var5 Int) (var6 Heap)) (not (and (inv_main22 var6 var5 var4 var3 var2 var1 var0) (not (is-O_node (read var6 var0)))))))
(assert (forall ((var0 Addr) (var1 Addr) (var2 Int) (var3 Int) (var4 Int) (var5 Int) (var6 Heap)) (not (and (inv_main22 var6 var5 var4 var3 var2 var1 var0) (and (is-O_node (read var6 var0)) (not (is-O_node (read var6 var0))))))))
(assert (forall ((var0 Int) (var1 Int) (var2 Addr) (var3 Int) (var4 Int) (var5 Heap)) (not (and (inv_main45 var5 var4 var3 var2 var1 var0) (not (is-O_node (read var5 var2)))))))
(assert (forall ((var0 Addr) (var1 Addr) (var2 Int) (var3 Int) (var4 Addr) (var5 Int) (var6 Int) (var7 Heap)) (not (and (inv_main52 var7 var6 var5 var4 var3 var2 var1 var0) (not (is-O_node (read var7 var0)))))))
(assert (forall ((var0 Addr) (var1 Addr) (var2 Int) (var3 Int) (var4 Addr) (var5 Int) (var6 Int) (var7 Heap)) (not (and (inv_main54 var7 var6 var5 var4 var3 var2 var1 var0) (not (is-O_node (read var7 var0)))))))
(assert (forall ((var0 Addr) (var1 Addr) (var2 Int) (var3 Int) (var4 Addr) (var5 Int) (var6 Int) (var7 Heap)) (not (and (inv_main53 var7 var6 var5 var4 var3 var2 var1 var0) (not (is-O_node (read var7 var0)))))))
(assert (forall ((var0 Addr) (var1 Addr) (var2 Int) (var3 Int) (var4 Addr) (var5 Int) (var6 Int) (var7 Heap)) (not (and (inv_main53 var7 var6 var5 var4 var3 var2 var1 var0) (and (is-O_node (read var7 var0)) (not (is-O_node (read var7 var0))))))))
(assert (forall ((var0 Int) (var1 Addr) (var2 Int) (var3 Int) (var4 Heap)) (not (inv_main62 var4 var3 var2 var1 var0))))
(check-sat)
